     30      1      6    380     10
     44
      3     11     12     13      6     24     15     19     23     25     28      9      4      1     15      0     24     20     22      6     23     25     20     14      5     14     12     28     18     29     28      9     15      2     13     15      9      8      7     25     18      5     21      1     15     22     22     28     18      2      5     24     27     23     16      6      3      5     24     26      9     10     10     16     22      4     23      0     24     28      2     25     12     11      0      0     23     12     11     17     12      6      8     16      7     13     15     12     14     22     26     23     17      1     14     28     27     29      9     13      1     13     26     28      9     18     11      1     16     15     25     19     10     20      3     10     12      5     16     18
    204     75    102    185    124    122    207    194    179    222      0     84     27     76     44     19    -21    -19    -21    -12     55      1     51     43     62     10     43     28     62      8
      4     11	    447    267      4      5      6      0      0      0      0    203     49      7      0      0      0      0      0      0      0      0    221      0      0      0    140      0      0      0      0      0    157      0    -76      0      0
      2     13	    308     95      3      4      3      0      0      0      0      0     54      0      0    148    234      0      0      0      0      0      0      0      0      0     79      0      0    161      4      0      0      0     61      0    147
      6     11	    111     52      6      6      4      0      0      0      0      0      0      0      0     18      0    -14      0      0     62     67      0      0      0      0      0      4      0      0     11      0      0      0      0      0      0
      2     10	    187     69      5      5      4      0      0      0      0      0      0      0      0      0      0      0      0      0      0      0      0      0      0    102      0      0    -23      0      0      0    124      0      0     53      0
      3     12	    323    145      3      5      3    203      0      0      0      0      0      0      0      0      0    107     -6      0      0      0      0      0      0      0      0      0      0      7      0    -57      0    245      0    177    140
      3     10	    235    127      3      5      6     49     54      0      0      0      0    -10      0      0    173     72      0      0      0      0      0      0      0      0      8      0      0      0      0      0      0      0      0      0      0
      3     14	    265     75      3      6      1      7      0      0      0      0    -10      0     30      0      0    196      0      0      0      0     69      0      0      0      0      0      0      0     90      0      0      0      0    199      0
      6     14	    440    163      6      6      3      0      0      0      0      0      0     30      0      0      0     77      0    -26      0      0      0      0      0      0      0      0      0      0      0    228      0      0      0      0      0
      5     12	    328     76      6      6      3      0    148     18      0      0      0      0      0      0      0      0      0      0      0      0      0      0      0    -18      0    -30      0      0      0    140      0      0      0      0      0
      4     10	    298    142      4      6      6      0    234      0      0      0    173      0      0      0      0      0      0      0      0      0      0      0    -12      0      0      0      0      0      0    146      0      0      0      0      0
      2     11	    248    119      6      6     10      0      0    -14      0    107     72    196     77      0      0      0    107      0     20      0      0      0      0     73      0      0     43      0      0      0      0    167    100      0      0
      5     13	    459    123      5      5      7      0      0      0      0     -6      0      0      0      0      0    107      0      0      0      0      0      0      0      0      0     72      0      0      0      0      0      0      0     32      0
      4     15	    155     60      6      6      8      0      0      0      0      0      0      0    -26      0      0      0      0      0      0      0      0     73      0      0     58      0      0      0      0      0      0     69      0      0      0
      6     10	    146     94      6      6      8      0      0     62      0      0      0      0      0      0      0     20      0      0      0      0      0     -8    106      0      0    102      0      0      0      0      0      0      0      0      0
      3     11	    439    185      3      5      5      0      0     67      0      0      0      0      0      0      0      0      0      0      0      0      0    -12      0      0      0      0      0      0      0      0     30      0      0      0      0
      3     13	    400     77      4      5      6    221      0      0      0      0      0     69      0      0      0      0      0      0      0      0      0      0      0      0      0      0      0    251      0      0      0    243      0      0      0
      1     10	    117     68      6      6      6      0      0      0      0      0      0      0      0      0      0      0      0     73     -8    -12      0      0      0      0      0     22      0      0      0     15      0      0     57      0      0
      6     14	    331    116      6      6      3      0      0      0      0      0      0      0      0      0    -12      0      0      0    106      0      0      0      0      0      3     -2    -19      0      0      0      0      0      0    185      0
      3     12	    130     56      3      5      4      0      0      0    102      0      0      0      0    -18      0     73      0      0      0      0      0      0      0      0      8      0      0      0      0     72      0      0      0      0    -17
      1     15	    274    105      2      4      6    140     79      0      0      0      8      0      0      0      0      0      0     58      0      0      0      0      3      8      0      0      0      0      0      0    152    -33      0      0      0
      2     14	    324    152      2      2      1      0      0      4      0      0      0      0      0    -30      0      0     72      0    102      0      0     22     -2      0      0      0      0      0      0      0      0      0      0      0      0
      5     13	    116     65      6      6      3      0      0      0    -23      0      0      0      0      0      0     43      0      0      0      0      0      0    -19      0      0      0      0      0      0      0     78      0      0      0      0
      2     13	    474    316      5      6     10      0    161      0      0      7      0      0      0      0      0      0      0      0      0      0    251      0      0      0      0      0      0      0      0      0      0      0      0      0      0
      5     14	    145     81      5      5      7      0      4     11      0      0      0     90      0      0      0      0      0      0      0      0      0      0      0      0      0      0      0      0      0      0      0     51      0      0      0
      5     15	    497    178      5      5      3      0      0      0      0    -57      0      0    228    140    146      0      0      0      0      0      0     15      0     72      0      0      0      0      0      0      0      0    168      0     44
      3     12	    256     61      6      6      5    157      0      0    124      0      0      0      0      0      0      0      0      0      0     30      0      0      0      0    152      0     78      0      0      0      0      0      0      0      0
      5     12	    488    169      5      5      8      0      0      0      0    245      0      0      0      0      0    167      0     69      0      0    243      0      0      0    -33      0      0      0     51      0      0      0    -57      0      0
      6     15	    490    176      6      6      3    -76     61      0      0      0      0      0      0      0      0    100      0      0      0      0      0     57      0      0      0      0      0      0      0    168      0    -57      0    162      0
      1     15	    381     76      6      6      2      0      0      0     53    177      0    199      0      0      0      0     32      0      0      0      0      0    185      0      0      0      0      0      0      0      0      0    162      0      0
      5     13	    474    174      6      6      9      0    147      0      0    140      0      0      0      0      0      0      0      0      0      0      0      0      0    -17      0      0      0      0      0     44      0      0      0      0      0